SCIP version 5.0.0 [precision: 8 byte] [memory: block] [mode: optimized] [LP solver: NONE] [GitHash: 3bbd232]
Copyright (C) 2002-2017 Konrad-Zuse-Zentrum fuer Informationstechnik Berlin (ZIB)

External codes: 
  Readline EditLine w  GNU library for command line editing (gnu.org/s/readline)
  CppAD 20160000.1     Algorithmic Differentiation of C++ algorithms developed by B. Bell (www.coin-or.org/CppAD)
  ZLIB 1.2.5           General purpose compression library by J. Gailly and M. Adler (zlib.net)
  GMP 6.1.2            GNU Multiple Precision Arithmetic Library developed by T. Granlund (gmplib.org)

user parameter file <scip.set> not found - using default parameters

read problem <../../Split_data/output/biodeg/3/3_sample_biodeg.logreg>
============

File name	:	../../Split_data/output/biodeg/3/3_sample_biodeg.logreg
Problem name 	:	3_sample_biodeg
Number of data	:	844
Number of var	:	41
The given data has linear dependence
1 sets of column vector are linearly dependent:
{ 19}, 

[dim=1] time: 0.028901
[dim=2] time: 0.066735
[dim=3] time: 0.10656
[dim=4] time: 0.137436
[dim=5] time: 0.171512
[dim=6] time: 0.200226
[dim=7] time: 0.228154
[dim=8] time: 0.25626
[dim=9] time: 0.284107
[dim=10] time: 0.310205
[dim=11] time: 0.328563
[dim=12] time: 0.346647
[dim=13] time: 0.365283
[dim=14] time: 0.383376
[dim=15] time: 0.401006
[dim=16] time: 0.422395
[dim=17] time: 0.446553
[dim=18] time: 0.495828
[dim=19] time: 0.511197
[dim=20] time: 0.526952
[dim=21] time: 0.543036
[dim=22] time: 0.558525
[dim=23] time: 0.574404
[dim=24] Time of forward = 0.589861sec.
AIC: 546.873
k: 23

[dim=40] time: 0.163062
[dim=39] time: 0.217109
[dim=38] time: 0.293869
[dim=37] time: 0.346961
[dim=36] time: 0.402013
[dim=35] time: 0.455437
[dim=34] time: 0.499798
[dim=33] time: 0.561918
[dim=32] time: 0.608398
[dim=31] time: 0.674016
[dim=30] time: 0.722537
[dim=29] time: 0.757126
[dim=28] time: 0.792982
[dim=27] time: 0.821603
[dim=26] time: 0.850461
[dim=25] time: 0.875204
[dim=24] time: 0.898452
[dim=23] time: 0.922908
[dim=22] time: 0.957658
[dim=21] Time of backward = 0.97839sec.
AIC: 544.403
k: 22
